c description: Random 3-CNF over 22 variables and 94 clauses
c generator: CNFgen (0.9.2)
c copyright: (C) 2012-2022 Massimo Lauria <massimo.lauria@uniroma1.it>
c url: https://massimolauria.net/cnfgen
c command line: cnfgen --output CNF_4.28/22_bit_94_181.cnf randkcnf 3 22 94
c
p cnf 22 94
-10 11 12 0
-4 12 -18 0
8 -15 -17 0
4 -11 -22 0
-2 -10 13 0
-8 -10 22 0
1 -3 -12 0
7 13 -18 0
-1 -10 20 0
1 5 -10 0
5 -10 22 0
-1 -5 22 0
7 -12 -13 0
-5 -16 17 0
1 10 -21 0
-5 -6 -11 0
3 -12 -16 0
8 18 -22 0
-13 -19 -22 0
10 -19 20 0
16 19 -21 0
4 8 -9 0
5 -13 14 0
-4 9 20 0
-8 -15 18 0
-6 -15 21 0
19 20 22 0
-13 -14 -18 0
3 -9 20 0
10 -14 17 0
-9 -16 19 0
-12 -20 -21 0
-1 14 21 0
1 -6 -18 0
4 -11 14 0
-4 8 -18 0
1 -2 -8 0
7 9 21 0
-9 12 17 0
-9 -10 -17 0
10 17 22 0
-6 -10 15 0
3 -11 -19 0
-4 9 -17 0
-4 7 10 0
3 -4 -19 0
5 -13 15 0
7 15 -21 0
-2 4 15 0
-16 19 22 0
-4 -5 -17 0
-13 14 -22 0
-5 -9 -15 0
2 -3 10 0
2 15 18 0
1 -14 -16 0
7 -16 21 0
-7 11 -22 0
-6 -8 17 0
9 12 -20 0
-3 16 20 0
-9 11 16 0
-3 -11 20 0
2 -5 17 0
-7 -14 20 0
8 18 -20 0
1 17 -19 0
-11 -12 15 0
3 -5 -14 0
-5 13 22 0
2 -5 13 0
3 -14 15 0
6 13 -19 0
-11 20 21 0
-4 6 15 0
1 16 18 0
4 8 20 0
2 -6 -13 0
-2 3 -19 0
18 -20 -22 0
-1 -12 -16 0
-6 -10 -17 0
-1 -6 8 0
-4 15 -17 0
11 -13 -16 0
-2 8 -11 0
14 -16 -21 0
-8 14 22 0
4 14 -18 0
4 -5 11 0
4 -11 20 0
-3 -5 16 0
-4 -5 -12 0
-1 -5 19 0
